************************************************************************
file with basedata            : cn312_.bas
initial value random generator: 1357919963
************************************************************************
projects                      :  1
jobs (incl. supersource/sink ):  18
horizon                       :  120
RESOURCES
  - renewable                 :  2   R
  - nonrenewable              :  3   N
  - doubly constrained        :  0   D
************************************************************************
PROJECT INFORMATION:
pronr.  #jobs rel.date duedate tardcost  MPM-Time
    1     16      0       25        2       25
************************************************************************
PRECEDENCE RELATIONS:
jobnr.    #modes  #successors   successors
   1        1          3           2   3   4
   2        3          3           6   9  17
   3        3          3           6   7  16
   4        3          3           5   8  10
   5        3          2           6  14
   6        3          1          15
   7        3          2          10  14
   8        3          3          11  12  14
   9        3          2          11  12
  10        3          2          13  17
  11        3          2          13  16
  12        3          2          13  16
  13        3          1          15
  14        3          1          17
  15        3          1          18
  16        3          1          18
  17        3          1          18
  18        1          0        
************************************************************************
REQUESTS/DURATIONS:
jobnr. mode duration  R 1  R 2  N 1  N 2  N 3
------------------------------------------------------------------------
  1      1     0       0    0    0    0    0
  2      1     3       0    6    6    0    0
         2     3       7    0    0    8    4
         3     7       0    4    0    7    0
  3      1     1       0    6    0    7    0
         2     1       8    0    0    6    0
         3     8       5    0    3    0    0
  4      1     8       3    0    6    8    0
         2     8       2    0    6    0    8
         3    10       1    0    6    7    0
  5      1     2       0    7    4    4    9
         2     7       6    0    2    0    9
         3    10       0    4    0    4    0
  6      1     2       0    5    9    0    6
         2     5       0    5    0    6    0
         3     7       0    5    0    0    5
  7      1     1       2    0    0    1    0
         2     1       2    0    6    0    0
         3     3       0    3    6    0    6
  8      1     5       0    4    9    0    5
         2     7       0    3    0    8    0
         3     9       0    3    0    3    0
  9      1     1       6    0    6    4    0
         2     3       0   10    0    0    3
         3     7       5    0    6    3    0
 10      1     3       0    2    0    4    0
         2     4       9    0    0    0    3
         3     4       0    2    4    1    0
 11      1     5       7    0    0    4    8
         2     6       0    8    0    4    5
         3    10       7    0    5    3    0
 12      1     4       0    5    0    0    5
         2     9       9    0    7    0    1
         3    10       3    0    6    5    0
 13      1     2       0    9    8   10    9
         2     5       0    9    7    0    3
         3     7       9    0    0   10    0
 14      1     5       6    0    0    4    0
         2     5       5    0    8    0    8
         3     8       0    7    0    0    8
 15      1     5       8    0    0    4    9
         2     6       3    0    0    3    9
         3     7       0    7    6    0    0
 16      1     3       9    0    0    8    0
         2     7       9    0    8    0    0
         3     8       0    6    0    8    9
 17      1     3       0    7    0    0    4
         2     3       3    0    8    0    0
         3     5       0    6    8    0    0
 18      1     0       0    0    0    0    0
************************************************************************
RESOURCEAVAILABILITIES:
  R 1  R 2  N 1  N 2  N 3
   22   22   55   44   48
************************************************************************
